MSW03
Position Depot: Random
Horizon for Depot: Small
Position of customers: Mixt
Distribution of the demand: Medium
Width of time windows: Wide
Distribution of the service: Large

VEHICLE 
NUMBER 	 CAPACITY 
 7 	 	 121 
 
CUSTOMER
CUST NO. 	 XCOORD.  	 YCOORD. 	 DEMAND 	 READY TIME 	 DUE DATE 	 SERVICE TIME 
 0 	 	 26 	 	 717 	 	 0 	 	 0 	 	 1809 	 	 0 
  1 	 	 40 	 	 359 	 	 9 	 	 372 	 	 736 	 	 149 
  2 	 	 740 	 	 573 	 	 1 	 	 1364 	 	 1789 	 	 108 
  3 	 	 125 	 	 575 	 	 8 	 	 418 	 	 648 	 	 162 
  4 	 	 659 	 	 656 	 	 78 	 	 412 	 	 699 	 	 180 
  5 	 	 71 	 	 525 	 	 5 	 	 1268 	 	 1666 	 	 180 
  6 	 	 104 	 	 437 	 	 5 	 	 519 	 	 923 	 	 196 
  7 	 	 142 	 	 503 	 	 2 	 	 879 	 	 1148 	 	 179 
  8 	 	 28 	 	 503 	 	 9 	 	 -15 	 	 235 	 	 139 
  9 	 	 102 	 	 347 	 	 4 	 	 530 	 	 1018 	 	 171 
  10 	 	 135 	 	 450 	 	 10 	 	 311 	 	 719 	 	 100 
  11 	 	 163 	 	 715 	 	 9 	 	 1125 	 	 1523 	 	 139 
  12 	 	 81 	 	 425 	 	 6 	 	 1285 	 	 1731 	 	 200 
  13 	 	 532 	 	 749 	 	 98 	 	 1151 	 	 1509 	 	 124 
  14 	 	 164 	 	 646 	 	 1 	 	 915 	 	 1384 	 	 142 
  15 	 	 762 	 	 601 	 	 1 	 	 540 	 	 884 	 	 135 
  16 	 	 70 	 	 415 	 	 9 	 	 728 	 	 1149 	 	 125 
  17 	 	 56 	 	 738 	 	 5 	 	 1473 	 	 1790 	 	 122 
  18 	 	 43 	 	 476 	 	 2 	 	 801 	 	 1050 	 	 136 
  19 	 	 550 	 	 796 	 	 6 	 	 1346 	 	 1670 	 	 188 
  20 	 	 615 	 	 639 	 	 3 	 	 422 	 	 653 	 	 161 
  21 	 	 162 	 	 504 	 	 3 	 	 1421 	 	 1809 	 	 158 
  22 	 	 758 	 	 609 	 	 5 	 	 457 	 	 813 	 	 117 
  23 	 	 65 	 	 362 	 	 1 	 	 995 	 	 1318 	 	 134 
  24 	 	 744 	 	 611 	 	 1 	 	 767 	 	 1216 	 	 148 
  25 	 	 17 	 	 373 	 	 10 	 	 727 	 	 969 	 	 155 
  26 	 	 391 	 	 606 	 	 84 	 	 1374 	 	 1809 	 	 131 
  27 	 	 118 	 	 723 	 	 8 	 	 262 	 	 464 	 	 179 
  28 	 	 197 	 	 376 	 	 7 	 	 1242 	 	 1599 	 	 111 
  29 	 	 386 	 	 259 	 	 5 	 	 263 	 	 640 	 	 110 
  30 	 	 427 	 	 135 	 	 1 	 	 499 	 	 777 	 	 100 
  31 	 	 399 	 	 733 	 	 2 	 	 135 	 	 512 	 	 126 
  32 	 	 646 	 	 403 	 	 1 	 	 784 	 	 1046 	 	 117 
  33 	 	 465 	 	 837 	 	 79 	 	 180 	 	 500 	 	 155 
  34 	 	 380 	 	 220 	 	 9 	 	 174 	 	 671 	 	 136 
  35 	 	 110 	 	 729 	 	 5 	 	 545 	 	 846 	 	 186 
  36 	 	 844 	 	 407 	 	 9 	 	 964 	 	 1414 	 	 106 
  37 	 	 172 	 	 585 	 	 90 	 	 743 	 	 1068 	 	 115 
  38 	 	 270 	 	 231 	 	 2 	 	 1349 	 	 1809 	 	 195 
  39 	 	 614 	 	 130 	 	 58 	 	 988 	 	 1198 	 	 119 
  40 	 	 636 	 	 760 	 	 4 	 	 1148 	 	 1448 	 	 171 
  41 	 	 918 	 	 786 	 	 81 	 	 511 	 	 984 	 	 126 
  42 	 	 510 	 	 155 	 	 7 	 	 754 	 	 1187 	 	 144 
  43 	 	 484 	 	 866 	 	 4 	 	 1099 	 	 1453 	 	 173 
  44 	 	 913 	 	 925 	 	 1 	 	 816 	 	 1138 	 	 188 
  45 	 	 2 	 	 987 	 	 1 	 	 899 	 	 1196 	 	 164 
  46 	 	 768 	 	 14 	 	 5 	 	 915 	 	 1124 	 	 137 
  47 	 	 185 	 	 261 	 	 87 	 	 230 	 	 531 	 	 106 
  48 	 	 839 	 	 579 	 	 6 	 	 794 	 	 1089 	 	 138 
  49 	 	 838 	 	 652 	 	 8 	 	 1574 	 	 1809 	 	 199 
  50 	 	 387 	 	 70 	 	 7 	 	 591 	 	 894 	 	 113 
 